c .nnodes 80
c .nvars 459
c .nsuppvars 249
c .ids  0 1 2 3 4 5 6 7 8 9 10 11 12 13 14 15 16 17 18 19 20 21 22 23 24 25 26 27 28 29 30 31 32 33 34 35 36 37 38 39 40 41 42 43 44 45 46 47 48 49 50 51 52 53 54 55 56 57 58 59 60 61 62 63 64 65 66 67 68 69 70 71 72 73 74 75 76 77 78 79 80 81 82 83 84 85 86 87 88 89 90 91 92 93 94 95 96 97 98 99 100 101 102 103 104 105 106 107 108 109 110 111 112 113 114 115 116 117 118 119 120 121 122 123 124 125 126 127 128 129 130 131 132 133 134 135 136 137 138 139 140 141 142 143 144 145 146 147 148 149 150 151 152 153 154 155 156 157 158 159 160 161 162 163 164 165 166 167 168 169 170 171 172 173 174 175 176 177 178 179 180 181 182 183 184 185 186 187 188 189 190 191 192 193 194 195 196 197 198 199 200 201 202 203 204 205 206 207 208 209 210 211 212 213 214 215 216 217 218 219 220 221 222 223 224 225 226 227 228 229 230 231 232 233 234 235 236 237 238 239 240 241 242 243 244 245 246 247 248 
c .cnfids  532 529 542 521 507 744 524 523 650 667 544 536 543 535 539 537 538 657 668 702 712 531 534 540 541 624 648 652 671 733 591 530 533 613 643 660 720 754 559 517 518 718 722 569 610 622 654 655 708 656 707 620 727 734 553 571 572 649 704 716 678 699 750 751 575 617 625 663 567 626 638 646 670 748 505 611 746 561 595 641 728 749 636 673 607 577 659 637 740 546 586 554 520 635 696 630 519 631 690 701 578 525 527 605 560 522 672 528 721 570 526 642 724 745 619 681 574 516 614 592 593 596 639 645 634 547 691 562 608 694 731 627 609 664 551 587 590 629 709 552 680 692 612 736 604 623 632 653 698 564 665 589 729 576 676 550 615 618 700 741 706 735 600 679 705 640 582 585 603 584 568 556 714 548 583 566 597 644 682 683 747 573 703 719 685 563 558 588 677 555 674 647 693 697 752 510 723 599 511 509 688 565 616 662 711 737 689 738 669 732 601 726 514 515 512 513 628 710 743 651 508 725 742 621 666 717 687 753 739 598 549 684 675 579 730 633 580 581 606 602 557 594 658 715 713 661 695 506 686 
c .nroots 1
c .rootids 2
p cnf 964 2348
3 4 7 -59 -62 0
3 -4 -7 -59 -62 0
-3 62 0
-3 -4 7 0
-3 59 0
-3 4 -7 0
4 -5 0
4 560 641 -707 0
-4 707 5 0
-4 -560 5 0
-4 -641 5 0
5 -611 686 6 0
5 -686 -740 6 0
-5 -6 0
-5 -686 740 0
-5 611 686 0
6 560 641 0
-6 -560 0
-6 -641 0
7 611 -8 0
7 -611 8 0
-7 -611 -8 0
-7 611 8 0
8 -572 -9 0
-8 572 0
-8 9 0
9 -10 -28 0
-9 10 0
-9 28 0
10 -687 11 0
10 670 11 0
-10 -11 0
-10 -670 687 0
11 -634 -687 12 0
11 686 -687 12 0
-11 687 0
-11 -12 0
-11 634 -686 0
12 673 686 13 0
12 686 -739 13 0
-12 -13 0
-12 -686 0
-12 -673 739 0
13 -739 14 27 0
13 -739 -14 -27 0
-13 739 0
-13 -14 27 0
-13 14 -27 0
14 15 25 0
-14 -15 0
-14 -25 0
15 600 16 0
-15 -600 0
-15 -16 0
16 17 23 0
-16 -17 0
-16 -23 0
17 685 18 0
-17 -685 0
-17 -18 0
18 19 21 0
-18 -19 0
-18 -21 0
19 651 20 0
-19 -651 0
-19 -20 0
20 -621 -725 0
20 -725 742 0
20 -621 742 0
-20 725 -742 0
-20 621 725 0
-20 621 -742 0
21 -743 22 0
-21 743 0
-21 -22 0
22 -651 -20 0
-22 651 0
-22 20 0
23 -573 24 0
-23 573 0
-23 -24 0
24 -685 -18 0
-24 685 0
-24 18 0
25 -706 26 0
-25 706 0
-25 -26 0
26 -600 -16 0
-26 600 0
-26 16 0
27 -551 -664 0
27 551 664 0
-27 551 -664 0
-27 -551 664 0
28 -29 -55 0
-28 29 0
-28 55 0
29 -30 -51 0
-29 30 0
-29 51 0
30 -31 -35 0
-30 31 0
-30 35 0
31 -687 32 0
31 736 32 0
-31 -32 0
-31 687 -736 0
32 -640 -687 33 0
32 686 -687 33 0
-32 687 0
-32 -33 0
-32 640 -686 0
33 589 686 34 0
33 686 -739 34 0
-33 -34 0
-33 -686 0
-33 -589 739 0
34 651 -739 743 -20 0
34 -651 -739 -743 -20 0
34 651 -739 -743 20 0
34 -651 -739 743 20 0
-34 739 0
-34 -651 743 -20 0
-34 -651 -743 20 0
-34 651 743 20 0
-34 651 -743 -20 0
35 -36 -47 0
-35 36 0
-35 47 0
36 -37 -44 0
-36 37 0
-36 44 0
37 38 41 0
-37 -38 0
-37 -41 0
38 -599 39 0
38 -687 39 0
-38 -39 0
-38 599 687 0
39 686 -687 40 0
39 -687 726 40 0
-39 687 0
-39 -40 0
-39 -686 -726 0
40 -601 686 -739 0
40 686 -711 739 0
-40 -686 0
-40 601 -739 0
-40 711 739 0
41 -687 42 0
41 -703 42 0
-41 -42 0
-41 687 703 0
42 686 -687 43 0
42 -687 688 43 0
-42 687 0
-42 -43 0
-42 -686 -688 0
43 -677 686 739 0
43 686 -723 -739 0
-43 -686 0
-43 723 -739 0
-43 677 739 0
44 -45 0
44 584 687 0
-44 -584 45 0
-44 -687 45 0
45 686 -687 46 0
45 -687 747 46 0
-45 687 0
-45 -46 0
-45 -686 -747 0
46 -556 686 739 0
46 -644 686 -739 0
-46 -686 0
-46 644 -739 0
-46 556 739 0
47 -687 48 0
47 679 48 0
-47 -48 0
-47 -679 687 0
48 -548 -687 49 0
48 686 -687 49 0
-48 687 0
-48 -49 0
-48 548 -686 0
49 686 705 50 0
49 686 -739 50 0
-49 -686 0
-49 -50 0
-49 -705 739 0
50 621 725 -739 -742 0
50 -621 -725 -739 -742 0
50 -621 725 -739 742 0
50 621 -725 -739 742 0
-50 739 0
-50 621 -725 -742 0
-50 621 725 742 0
-50 -621 -725 742 0
-50 -621 725 -742 0
51 -687 52 0
51 639 52 0
-51 -52 0
-51 -639 687 0
52 -615 -687 53 0
52 686 -687 53 0
-52 687 0
-52 -53 0
-52 615 -686 0
53 686 694 54 0
53 686 -739 54 0
-53 -686 0
-53 -54 0
-53 -694 739 0
54 -573 -739 -24 0
54 -573 -739 -17 0
54 573 -739 17 24 0
-54 573 -17 0
-54 -573 17 24 0
-54 739 0
-54 573 -24 0
55 -687 56 0
55 554 56 0
-55 -56 0
-55 -554 687 0
56 -590 -687 57 0
56 686 -687 57 0
-56 687 0
-56 -57 0
-56 590 -686 0
57 578 686 58 0
57 686 -739 58 0
-57 -58 0
-57 -686 0
-57 -578 739 0
58 -706 -739 -26 0
58 -706 -739 -15 0
58 706 -739 15 26 0
-58 706 -15 0
-58 -706 15 26 0
-58 739 0
-58 706 -26 0
59 -641 -8 -60 0
59 641 8 -60 0
-59 60 0
-59 -641 8 0
-59 641 -8 0
60 578 739 9 -61 0
60 578 -739 -9 -61 0
60 -578 -739 -9 61 0
60 -578 739 9 61 0
-60 -578 -61 0
-60 578 61 0
-60 -739 9 0
-60 739 -9 0
61 29 -55 0
61 -29 55 0
-61 -29 -55 0
-61 29 55 0
62 695 63 65 -66 0
62 -695 63 -65 -66 0
-62 66 0
-62 695 -65 0
-62 -63 0
-62 -695 65 0
63 -673 -64 0
63 673 64 0
-63 673 -64 0
-63 -673 64 0
64 10 -28 0
64 -10 28 0
-64 -10 -28 0
-64 10 28 0
65 4 -9 0
-65 -4 0
-65 9 0
66 670 -67 -70 0
66 10 -67 -70 0
-66 70 0
-66 67 0
-66 -670 -10 0
67 694 -68 -69 0
67 -694 68 -69 0
-67 69 0
-67 694 68 0
-67 -694 -68 0
68 30 -51 0
68 -30 51 0
-68 -30 -51 0
-68 30 51 0
69 554 11 0
69 -670 55 0
69 554 -670 0
69 11 55 0
-69 -554 -55 0
-69 670 -11 0
70 -554 -71 -188 0
70 56 -71 -188 0
-70 188 0
-70 71 0
-70 554 -56 0
71 -72 -91 -162 -186 0
-71 186 0
-71 72 0
-71 162 0
-71 91 0
72 -589 73 89 -90 0
72 589 73 -89 -90 0
-72 -73 0
-72 -589 -89 0
-72 90 0
-72 589 89 0
73 74 88 0
73 507 -574 74 0
73 -507 574 74 0
-73 -74 0
-73 507 574 -88 0
-73 -507 -574 -88 0
74 -505 506 75 0
74 -505 506 696 0
-74 505 0
-74 -506 0
-74 -696 -75 0
75 -631 -76 0
-75 631 0
-75 76 0
76 -574 -724 -77 0
-76 574 0
-76 724 0
-76 77 0
77 -642 -78 -81 0
-77 642 0
-77 78 0
-77 81 0
78 -580 -730 -79 -80 0
-78 80 0
-78 580 0
-78 79 0
-78 730 0
79 579 581 633 0
-79 -579 0
-79 -633 0
-79 -581 0
80 675 -684 0
-80 -675 0
-80 684 0
81 -505 -568 -82 0
-81 505 0
-81 568 0
-81 82 0
82 549 -83 0
-82 -549 0
-82 83 0
83 606 -84 0
-83 -606 0
-83 84 0
84 602 -85 0
-84 -602 0
-84 85 0
85 557 -86 0
-85 -557 0
-85 86 0
86 594 -87 0
-86 -594 0
-86 87 0
87 658 661 713 715 0
-87 -715 0
-87 -713 0
-87 -658 0
-87 -661 0
88 -521 -724 0
88 521 724 0
-88 521 -724 0
-88 -521 724 0
89 31 -35 0
89 -31 35 0
-89 -31 -35 0
-89 31 35 0
90 51 77 0
90 639 74 0
90 51 74 0
90 639 77 0
-90 -639 -51 0
-90 -77 -74 0
91 576 92 -109 0
91 -576 -92 -109 0
91 -576 -108 -109 0
-91 109 0
-91 576 -92 0
-91 -576 92 108 0
92 -93 102 0
92 -629 -93 -95 0
-92 93 0
-92 629 -102 0
-92 95 -102 0
93 549 -94 0
-93 -549 0
-93 94 0
94 506 -83 0
-94 -506 0
-94 83 0
95 78 96 99 0
-95 -78 0
-95 -99 0
-95 -96 0
96 -580 97 0
-96 580 0
-96 -97 0
97 -675 0
97 -508 -684 0
97 98 0
97 508 684 0
-97 -508 675 684 -98 0
-97 508 675 -684 -98 0
98 730 -79 0
-98 -730 0
-98 79 0
99 -79 -100 0
-99 79 0
-99 100 0
100 -675 -684 -101 0
-100 675 0
-100 684 0
-100 101 0
101 -580 -666 0
-101 580 0
-101 666 0
102 524 103 -106 0
102 103 105 -106 0
-102 106 0
-102 -103 0
-102 -524 -105 0
103 97 -104 0
-103 -97 0
-103 104 0
104 -580 666 0
-104 580 0
-104 -666 0
105 -730 -99 0
-105 730 0
-105 99 0
106 78 107 0
106 523 525 0
106 525 107 0
106 523 78 0
-106 -525 -78 0
-106 -523 -107 0
107 -98 -100 0
-107 98 0
-107 100 0
108 506 82 0
-108 -506 0
-108 -82 0
109 -603 82 114 0
109 603 -110 -114 0
109 603 82 -114 0
109 -603 -110 114 0
-109 -603 -114 0
-109 603 114 0
-109 -82 110 0
110 -604 111 0
110 -614 112 0
110 -604 -614 0
110 111 112 0
-110 604 -112 0
-110 614 -111 0
111 506 -596 0
111 506 82 0
-111 -506 0
-111 596 -82 0
112 506 113 0
-112 -506 0
-112 -113 0
113 580 -82 0
-113 -580 0
-113 82 0
114 -121 -141 0
114 -115 -141 0
-114 141 0
-114 115 121 0
115 -116 119 0
115 582 119 0
-115 -119 0
-115 -582 116 0
116 117 118 0
-116 -117 0
-116 -118 0
117 686 695 0
-117 -686 0
-117 -695 0
118 695 752 0
118 563 674 752 0
-118 -752 0
-118 -674 -695 0
-118 -563 -695 0
119 118 120 0
-119 -118 0
-119 -120 0
120 686 695 0
120 583 -686 0
120 603 686 0
-120 -583 -686 0
-120 -603 686 -695 0
121 122 -127 0
-121 -122 0
-121 127 0
122 -123 -124 0
122 566 -124 0
-122 124 0
-122 -566 123 0
123 -695 0
123 -598 -686 0
-123 598 695 0
-123 686 695 0
124 125 126 0
124 558 597 0
124 597 126 0
124 558 125 0
-124 -597 -125 0
-124 -558 -126 0
125 686 -695 0
-125 -686 0
-125 695 0
126 -598 -686 0
126 -686 -695 0
-126 686 0
-126 598 695 0
127 128 -130 0
-127 -128 0
-127 130 0
128 -123 -129 0
128 682 -129 0
-128 129 0
-128 -682 123 0
129 697 125 0
129 683 126 0
129 125 126 0
129 683 697 0
-129 -683 -125 0
-129 -697 -126 0
130 -131 -136 0
-130 131 0
-130 136 0
131 132 134 0
-131 -132 0
-131 -134 0
132 -123 -133 0
132 588 -133 0
-132 133 0
-132 -588 123 0
133 662 125 0
133 555 126 0
133 125 126 0
133 555 662 0
-133 -555 -125 0
-133 -662 -126 0
134 -123 -135 0
134 647 -135 0
-134 135 0
-134 -647 123 0
135 732 125 0
135 693 126 0
135 125 126 0
135 693 732 0
-135 -693 -125 0
-135 -732 -126 0
136 137 139 0
-136 -137 0
-136 -139 0
137 -123 -138 0
137 738 -138 0
-137 138 0
-137 -738 123 0
138 710 125 0
138 669 126 0
138 125 126 0
138 669 710 0
-138 -669 -125 0
-138 -710 -126 0
139 -123 -140 0
139 616 -140 0
-139 140 0
-139 -616 123 0
140 125 126 0
140 628 737 0
140 737 126 0
140 628 125 0
-140 -737 -125 0
-140 -628 -126 0
141 142 153 -160 0
141 142 153 158 0
-141 -142 0
-141 -153 0
-141 -158 160 0
142 -115 -143 -147 -151 0
-142 151 0
-142 115 0
-142 147 0
-142 143 0
143 -144 -145 0
143 719 -145 0
-143 145 0
-143 -719 144 0
144 -695 0
144 -686 -753 0
-144 695 753 0
-144 686 695 0
145 125 146 0
145 565 689 0
145 689 146 0
145 565 125 0
-145 -689 -125 0
-145 -565 -146 0
146 -686 -695 0
146 -686 -753 0
-146 686 0
-146 695 753 0
147 -148 150 0
147 -676 -686 -148 0
-147 148 0
-147 676 -150 0
-147 686 -150 0
148 -623 149 0
148 125 149 0
-148 -149 0
-148 623 -125 0
149 -676 -686 698 0
149 -686 -695 698 0
-149 686 0
-149 -698 0
-149 676 695 0
150 627 695 0
-150 -627 0
-150 -695 0
151 -144 -152 0
151 709 -152 0
-151 152 0
-151 -709 144 0
152 125 146 0
152 700 741 0
152 741 146 0
152 700 125 0
-152 -741 -125 0
-152 -700 -146 0
153 -154 156 0
-153 154 0
-153 -156 0
154 -144 -155 0
154 731 -155 0
-154 155 0
-154 -731 144 0
155 125 146 0
155 564 665 0
155 665 146 0
155 564 125 0
-155 -665 -125 0
-155 -564 -146 0
156 -144 -157 0
156 562 -157 0
-156 157 0
-156 -562 144 0
157 692 125 0
157 612 146 0
157 125 146 0
157 612 692 0
-157 -612 -125 0
-157 -692 -146 0
158 -144 -159 0
158 547 -159 0
-158 159 0
-158 -547 144 0
159 125 146 0
159 552 680 0
159 680 146 0
159 552 125 0
-159 -680 -125 0
-159 -552 -146 0
160 -144 -161 0
160 608 -161 0
-160 161 0
-160 -608 144 0
161 632 125 0
161 550 146 0
161 125 146 0
161 550 632 0
-161 -550 -125 0
-161 -632 -146 0
162 -666 -163 -181 0
162 666 -163 176 0
162 -666 -163 -176 0
-162 163 0
-162 666 -176 0
-162 -666 176 181 0
163 -164 -173 0
163 506 85 -173 0
-163 173 0
-163 -85 164 0
-163 -506 164 0
164 -506 602 0
164 602 606 165 0
-164 -602 0
-164 506 -165 0
-164 506 -606 0
165 -512 166 0
-165 512 0
-165 -166 0
166 514 -167 0
-166 -514 0
-166 167 0
167 513 -168 0
-167 -513 0
-167 168 0
168 515 -169 0
-168 -515 0
-168 169 0
169 511 -170 0
-169 -511 0
-169 170 0
170 509 510 171 0
-170 -509 0
-170 -171 0
-170 -510 0
171 509 511 -172 0
-171 172 0
-171 -511 0
-171 -509 0
172 512 513 514 515 0
-172 -515 0
-172 -514 0
-172 -512 0
-172 -513 0
173 730 -175 0
173 -108 -175 0
173 -174 -175 0
-173 175 0
-173 -730 108 174 0
174 506 -585 -82 0
-174 82 0
-174 585 0
-174 -506 0
175 -636 -112 0
175 636 112 0
175 82 -112 0
-175 -636 112 0
-175 636 -82 -112 0
176 -101 -178 0
176 -113 -177 -178 0
-176 178 0
-176 101 177 0
-176 101 113 0
177 -593 614 0
-177 593 0
-177 -614 0
178 506 179 0
-178 -506 0
-178 -179 0
179 -570 180 177 0
179 745 180 177 0
-179 -177 0
-179 -180 0
-179 570 -745 0
180 -568 580 585 604 0
-180 -604 0
-180 -585 0
-180 568 0
-180 -580 0
181 506 82 0
181 506 -179 182 0
-181 -506 0
-181 -82 179 0
-181 -82 -182 0
182 -684 -183 0
-182 684 0
-182 183 0
183 -675 -184 0
-183 675 0
-183 184 0
184 -730 -185 0
-184 730 0
-184 185 0
185 -579 -581 -633 0
-185 579 0
-185 581 0
-185 633 0
186 74 187 0
186 81 -74 0
186 78 -74 0
-186 74 -187 0
-186 -78 -81 -74 0
187 542 -642 0
187 -542 642 0
-187 -542 -642 0
-187 542 642 0
188 -189 -194 -472 -482 0
-188 482 0
-188 189 0
-188 472 0
-188 194 0
189 696 -190 192 0
189 190 191 192 0
-189 -192 0
-189 190 -191 0
-189 -696 -190 0
190 532 74 0
-190 -532 0
-190 -74 0
191 -506 696 0
191 696 -75 0
191 505 696 0
-191 -696 0
-191 -505 506 75 0
192 -506 193 0
192 -76 193 0
192 505 193 0
-192 -193 0
-192 -505 506 76 0
193 -529 -631 74 0
193 529 631 74 0
-193 -74 0
-193 -529 631 0
-193 529 -631 0
194 -195 -233 -249 -253 0
-194 253 0
-194 195 0
-194 249 0
-194 233 0
195 -196 -213 -218 -228 0
-195 228 0
-195 196 0
-195 218 0
-195 213 0
196 -618 -197 204 0
196 -197 204 209 0
-196 197 0
-196 -204 0
-196 618 -209 0
197 -108 201 0
197 -198 201 0
197 681 201 0
-197 -201 0
-197 -681 108 198 0
198 -93 199 0
198 -539 -93 -95 0
-198 93 0
-198 539 -199 0
-198 95 -199 0
199 96 -200 0
199 574 -200 0
-199 200 0
-199 -574 -96 0
200 105 107 0
200 540 541 0
200 541 107 0
200 540 105 0
-200 -541 -105 0
-200 -540 -107 0
201 -570 -202 0
-201 570 0
-201 202 0
202 108 203 0
-202 -108 0
-202 -203 0
203 -645 -93 0
-203 645 0
-203 93 0
204 661 -205 0
204 661 715 -207 0
-204 -661 0
-204 -715 205 0
-204 205 207 0
205 506 206 0
205 506 83 0
-205 -506 0
-205 -83 -206 0
206 509 170 0
206 510 170 0
-206 -170 0
-206 -509 -510 0
207 506 208 0
207 506 83 0
-207 -506 0
-207 -83 -208 0
208 511 169 0
208 509 510 169 0
-208 -169 0
-208 -510 -511 0
-208 -509 -511 0
209 -93 210 0
209 -729 -93 -95 0
-209 93 0
-209 729 -210 0
-209 95 -210 0
210 543 211 212 0
210 211 107 212 0
-210 -212 0
-210 -211 0
-210 -543 -107 0
211 -642 -78 0
-211 642 0
-211 78 0
212 -544 -105 0
-212 544 0
-212 105 0
213 -207 -214 216 0
213 713 -214 216 0
-213 214 0
-213 -216 0
-213 -713 207 0
214 669 113 215 0
214 -669 113 -215 0
214 -669 178 -215 0
214 669 178 215 0
-214 669 -215 0
-214 -669 215 0
-214 -113 -178 0
215 137 -139 143 0
215 -137 139 143 0
-215 -143 0
-215 137 139 0
-215 -137 -139 0
216 684 -217 -174 0
216 684 -174 -183 0
-216 -684 0
-216 174 0
-216 217 183 0
217 -508 675 -98 0
-217 508 0
-217 -675 0
-217 98 0
218 -556 219 220 -221 0
218 556 219 -220 -221 0
-218 -219 0
-218 -556 -220 0
-218 221 0
-218 556 220 0
219 -715 205 0
-219 715 0
-219 -205 0
220 37 -44 0
220 -37 44 0
-220 -37 -44 0
-220 37 44 0
221 744 -108 222 0
221 -744 -222 -225 0
221 744 222 -225 0
221 -744 -108 -222 0
-221 -744 222 0
-221 744 -222 0
-221 108 225 0
222 -128 -132 -134 -223 0
-222 223 0
-222 128 0
-222 134 0
-222 132 0
223 -508 -122 -224 0
-223 508 0
-223 122 0
-223 224 0
224 -137 -139 0
-224 137 0
-224 139 0
225 581 717 226 227 0
225 581 -717 226 -227 0
-225 -226 0
-225 -717 227 0
-225 -581 0
-225 717 -227 0
226 506 -585 0
-226 -506 0
-226 585 0
227 506 -750 0
-227 -506 0
-227 750 0
228 618 -229 0
228 -108 -229 0
228 -209 -229 0
-228 229 0
-228 -618 108 209 0
229 185 -230 0
229 174 -230 0
-229 230 0
-229 -174 -185 0
230 658 232 0
230 231 -232 0
-230 -231 -232 0
-230 -658 232 0
231 661 713 715 0
-231 -661 0
-231 -715 0
-231 -713 0
232 506 83 0
232 506 -515 169 0
232 506 515 -169 0
-232 -506 0
-232 515 -83 169 0
-232 -515 -83 -169 0
233 -587 -234 240 0
233 -234 240 245 0
-233 234 0
-233 -240 0
-233 587 -245 0
234 -108 239 0
234 -235 239 0
234 629 239 0
-234 -239 0
-234 -629 108 235 0
235 -93 236 0
235 -587 -93 -95 0
-235 93 0
-235 587 -236 0
-235 95 -236 0
236 105 237 -238 0
236 531 237 -238 0
-236 238 0
-236 -237 0
-236 -531 -105 0
237 97 -101 0
-237 -97 0
-237 101 0
238 530 78 0
238 528 107 0
238 78 107 0
238 528 530 0
-238 -528 -78 0
-238 -530 -107 0
239 -736 -31 0
-239 736 0
-239 31 0
240 -735 108 241 0
-240 735 0
-240 -241 0
-240 -108 0
241 -93 242 0
241 -609 -93 -95 0
-241 93 0
-241 609 -242 0
-241 95 -242 0
242 96 243 -244 0
242 631 243 -244 0
-242 244 0
-242 -243 0
-242 -631 -96 0
243 -536 -105 0
-243 536 0
-243 105 0
244 535 78 0
244 527 107 0
244 78 107 0
244 527 535 0
-244 -527 -78 0
-244 -535 -107 0
245 -93 246 0
245 -735 -93 -95 0
-245 93 0
-245 735 -246 0
-245 95 -246 0
246 96 247 -248 0
246 696 247 -248 0
-246 248 0
-246 -247 0
-246 -696 -96 0
247 -534 -105 0
-247 534 0
-247 105 0
248 533 78 0
248 526 107 0
248 78 107 0
248 526 533 0
-248 -526 -78 0
-248 -533 -107 0
249 86 -250 -252 0
249 557 -250 252 0
-249 250 0
-249 -557 252 0
-249 -86 -252 0
250 705 241 -251 0
250 -705 -735 251 0
250 705 -735 -251 0
250 -705 241 251 0
-250 -705 -251 0
-250 705 251 0
-250 735 -241 0
251 36 -47 0
251 -36 47 0
-251 -36 -47 0
-251 36 47 0
252 506 83 0
252 506 -514 167 0
252 506 514 -167 0
-252 -506 0
-252 514 -83 167 0
-252 -514 -83 -167 0
253 -254 -277 -461 -469 0
-253 469 0
-253 254 0
-253 461 0
-253 277 0
254 -255 -271 -273 -274 0
-254 274 0
-254 255 0
-254 273 0
-254 271 0
255 -256 261 263 -265 0
-255 265 0
-255 -263 0
-255 256 0
-255 -261 0
256 -745 -257 260 0
256 203 -257 260 0
-256 257 0
-256 -260 0
-256 745 -203 0
257 555 746 0
257 -112 -258 0
257 746 -258 0
257 555 -112 0
-257 -746 112 0
-257 -555 258 0
258 132 -134 -259 0
258 132 136 -259 0
258 -132 134 -136 -259 0
-258 -132 -134 0
-258 -132 136 0
-258 259 0
-258 132 134 -136 0
259 143 222 0
-259 -143 0
-259 -222 0
260 585 -82 -112 0
-260 112 0
-260 82 0
-260 -585 0
261 -506 -580 0
261 -580 -82 262 0
-261 580 0
-261 506 -262 0
-261 506 82 0
262 -746 182 0
262 -746 179 0
-262 746 0
-262 -179 -182 0
263 -750 108 264 0
-263 750 0
-263 -264 0
-263 -108 0
264 -93 -104 -182 0
-264 93 0
-264 104 0
-264 182 0
265 -729 -266 0
265 594 267 0
265 594 -729 0
265 -266 267 0
-265 -594 266 0
-265 729 -267 0
266 506 83 0
266 506 -513 168 0
266 506 513 -168 0
-266 -506 0
-266 513 -83 168 0
-266 -513 -83 -168 0
267 -93 -96 0
267 -93 268 0
-267 93 0
-267 96 -268 0
268 519 -78 0
268 78 -269 0
-268 -519 -78 0
-268 78 269 0
269 -99 -270 0
269 576 99 0
-269 -99 270 0
-269 -576 99 0
270 518 730 0
270 517 -730 0
-270 -518 730 0
-270 -517 -730 0
271 -555 693 272 0
271 -693 258 -272 0
271 -555 -693 -272 0
271 693 258 272 0
-271 693 -272 0
-271 -693 272 0
-271 555 -258 0
272 -134 -136 143 0
272 134 136 143 0
-272 -143 0
-272 -134 136 0
-272 134 -136 0
273 -674 -121 266 0
273 674 121 266 0
273 -674 87 -121 0
273 674 87 121 0
-273 -674 121 0
-273 674 -121 0
-273 -87 -266 0
274 -563 141 275 -276 0
274 563 -141 275 -276 0
-274 276 0
-274 563 141 0
-274 -275 0
-274 -563 -141 0
275 -729 108 267 0
-275 729 0
-275 -267 0
-275 -108 0
276 -570 32 0
276 -736 203 0
276 -570 -736 0
276 32 203 0
-276 570 -203 0
-276 736 -32 0
277 -278 -285 -289 -323 0
-277 323 0
-277 278 0
-277 289 0
-277 285 0
278 585 -279 -280 0
278 -112 -279 -280 0
-278 280 0
-278 279 0
-278 -585 112 0
279 47 94 0
279 649 679 0
279 679 94 0
279 649 47 0
-279 -679 -47 0
-279 -649 -94 0
280 677 -721 -281 -282 0
280 677 721 -281 282 0
280 -677 -721 281 -282 0
280 -677 721 281 282 0
-280 -677 -281 0
-280 677 281 0
-280 721 -282 0
-280 -721 282 0
281 38 -41 0
281 -38 41 0
-281 -38 -41 0
-281 38 41 0
282 506 -151 283 0
-282 -506 0
-282 151 0
-282 -283 0
283 -144 -284 0
283 620 -284 0
-283 284 0
-283 -620 144 0
284 125 146 0
284 637 701 0
284 701 146 0
284 637 125 0
-284 -701 -125 0
-284 -637 -146 0
285 -108 286 0
285 286 -287 0
285 708 286 0
-285 -286 0
-285 -708 108 287 0
286 593 -596 -93 0
286 593 82 -93 0
-286 -593 0
-286 93 0
-286 596 -82 0
287 -93 -104 -185 -288 0
-287 288 0
-287 93 0
-287 185 0
-287 104 0
288 -675 -684 730 0
-288 675 0
-288 684 0
-288 -730 0
289 -290 -298 318 -319 0
-289 319 0
-289 290 0
-289 298 0
-289 -318 0
290 48 291 -292 0
290 -679 291 -292 0
-290 292 0
-290 -291 0
-290 679 -48 0
291 -506 -606 0
291 -606 -84 0
-291 606 0
-291 506 84 0
292 644 -667 -208 -293 0
292 644 667 -208 293 0
292 -644 -667 208 -293 0
292 -644 667 208 293 0
-292 -644 -208 0
-292 644 208 0
-292 667 -293 0
-292 -667 293 0
293 506 294 0
-293 -506 0
-293 -294 0
294 626 -295 0
294 -295 -297 0
-294 295 0
-294 -626 297 0
295 125 296 0
295 605 635 0
295 635 296 0
295 605 125 0
-295 -635 -125 0
-295 -605 -296 0
296 -653 -686 0
296 -686 -695 0
-296 686 0
-296 653 695 0
297 -695 0
297 -653 -686 0
-297 653 695 0
-297 686 695 0
298 -572 -299 -311 314 0
298 572 -299 311 314 0
-298 -314 0
-298 -572 311 0
-298 299 0
-298 572 -311 0
299 731 -300 -301 0
299 154 -300 -301 0
-299 301 0
-299 300 0
-299 -731 -154 0
300 626 160 0
300 608 294 0
300 160 294 0
300 608 626 0
-300 -608 -160 0
-300 -626 -294 0
301 -599 -302 307 0
301 38 -302 307 0
-301 302 0
-301 -307 0
-301 599 -38 0
302 588 -304 0
302 132 303 0
302 132 -304 0
302 588 303 0
-302 -588 -132 0
-302 -303 304 0
303 -714 717 0
-303 714 0
-303 -717 0
304 -734 305 0
304 -553 306 0
304 -553 -734 0
304 305 306 0
-304 734 -306 0
-304 553 -305 0
305 506 -618 0
305 506 303 0
-305 -506 0
-305 618 -303 0
306 506 -609 0
306 506 303 0
-306 -506 0
-306 609 -303 0
307 -506 -622 308 0
307 -622 735 -308 0
-307 622 0
-307 -735 -308 0
-307 506 308 0
308 519 525 -309 -310 0
-308 -519 0
-308 310 0
-308 309 0
-308 -525 0
309 526 -527 528 0
-309 -526 0
-309 527 0
-309 -528 0
310 506 -717 0
-310 -506 0
-310 717 0
311 506 312 0
-311 -506 0
-311 -312 0
312 -297 -313 0
312 646 -313 0
-312 313 0
-312 -646 297 0
313 630 125 0
313 586 296 0
313 125 296 0
313 586 630 0
-313 -586 -125 0
-313 -630 -296 0
314 659 315 -316 0
314 -659 -116 315 316 0
-314 116 316 0
-314 -659 -316 0
-314 -315 0
-314 659 316 0
315 -563 619 752 0
-315 563 0
-315 -752 0
-315 -619 0
316 118 317 0
-316 -118 0
-316 -317 0
317 -686 691 0
317 686 690 0
317 686 695 0
-317 -686 -691 0
-317 686 -690 -695 0
318 -581 633 -174 0
-318 581 0
-318 -633 0
-318 174 0
319 -586 115 -320 322 0
319 586 -115 -320 322 0
-319 -322 0
-319 586 115 0
-319 320 0
-319 -586 -115 0
320 -619 737 -115 321 0
320 619 -737 115 -321 0
320 619 737 115 321 0
320 -619 -737 -115 -321 0
-320 -619 115 0
-320 619 -115 0
-320 737 -321 0
-320 -737 321 0
321 -139 143 0
-321 139 0
-321 -143 0
322 -723 -206 0
322 723 206 0
-322 723 -206 0
-322 -723 206 0
323 -324 -343 -367 -391 0
-323 391 0
-323 324 0
-323 367 0
-323 343 0
324 -661 -325 -341 0
324 -94 -325 -341 0
-324 341 0
-324 325 0
-324 661 94 0
325 -326 -329 339 340 0
-325 329 0
-325 -340 0
-325 326 0
-325 -339 0
326 725 169 327 -328 0
326 -725 -169 327 -328 0
-326 -327 0
-326 725 -169 0
-326 328 0
-326 -725 169 0
327 620 284 0
327 -620 -144 -284 0
-327 -620 144 0
-327 620 -284 0
-327 -620 284 0
328 -711 38 -115 0
328 711 -38 -115 0
328 -689 711 -38 0
328 -689 -711 38 0
-328 -711 -38 0
-328 711 38 0
-328 689 115 0
329 -719 -330 -336 0
329 -145 -330 -336 0
-329 336 0
-329 330 0
-329 719 145 0
330 -627 -331 0
330 147 310 0
330 -627 310 0
330 147 -331 0
-330 627 -147 0
-330 -310 331 0
331 -332 334 -335 0
331 -575 -332 334 0
-331 332 0
-331 -334 0
-331 575 335 0
332 -751 333 0
332 -717 729 333 0
-332 -333 0
-332 -729 751 0
-332 717 751 0
333 699 717 0
333 -576 699 0
-333 -699 0
-333 576 -717 0
334 678 717 0
334 -618 678 0
-334 -678 0
-334 618 -717 0
335 -717 735 0
-335 717 0
-335 -735 0
336 -731 -337 338 0
336 -155 -337 338 0
-336 337 0
-336 -338 0
-336 731 155 0
337 -608 -129 0
337 -682 -161 0
337 -608 -682 0
337 -129 -161 0
-337 682 129 0
-337 608 161 0
338 626 295 0
-338 -626 0
-338 -295 0
339 -741 -115 0
339 -701 -115 0
-339 115 0
-339 701 741 0
340 -584 -45 0
340 584 -687 45 0
-340 687 45 0
-340 584 -45 0
-340 -584 45 0
341 582 -115 342 0
341 -741 115 342 0
-341 -342 0
-341 -582 -115 0
-341 741 115 0
342 650 -143 0
342 -650 143 0
-342 -650 -143 0
-342 650 143 0
343 -344 -359 -360 -361 0
-343 361 0
-343 344 0
-343 360 0
-343 359 0
344 -345 -349 -350 -357 0
-344 357 0
-344 345 0
-344 350 0
-344 349 0
345 601 346 -347 0
345 -506 -601 -346 0
345 -506 601 346 0
-345 -601 346 0
-345 506 347 0
-345 506 -601 0
-345 601 -346 0
346 510 171 0
-346 -510 0
-346 -171 0
347 661 303 0
347 661 -348 0
-347 -661 0
-347 -303 348 0
348 -704 -716 0
348 629 729 0
348 629 -704 0
348 -716 729 0
-348 -629 716 0
-348 704 -729 0
349 137 139 0
349 616 738 0
349 738 139 0
349 616 137 0
-349 -738 -137 0
-349 -616 -139 0
350 547 -351 -355 0
350 158 -351 -355 0
-350 355 0
-350 351 0
-350 -547 -158 0
351 -657 352 -354 0
351 657 352 354 0
-351 -352 0
-351 -657 354 0
-351 657 -354 0
352 -672 353 0
352 607 -638 672 -353 0
-352 -607 672 0
-352 -672 -353 0
-352 638 -353 0
-352 672 353 0
353 506 721 0
-353 -506 0
-353 -721 0
354 506 546 0
354 506 -618 0
-354 -506 0
-354 -546 618 0
355 -592 -712 -356 0
355 592 712 356 0
-355 -712 356 0
-355 592 -356 0
-355 -592 712 0
356 506 604 -636 0
-356 636 0
-356 -604 0
-356 -506 0
357 647 358 0
357 134 358 0
-357 -358 0
-357 -647 -134 0
358 707 -5 0
358 -560 -707 5 0
358 -641 -707 5 0
-358 707 5 0
-358 -707 -5 0
-358 560 641 5 0
359 143 312 0
359 646 719 0
359 719 312 0
359 646 143 0
-359 -719 -143 0
-359 -646 -312 0
360 682 122 0
360 566 128 0
360 122 128 0
360 566 682 0
-360 -566 -122 0
-360 -682 -128 0
361 151 362 -366 0
361 709 362 -366 0
-361 366 0
-361 -362 0
-361 -709 -151 0
362 -303 -363 0
362 654 -303 -365 0
-362 303 0
-362 -654 363 0
-362 363 365 0
363 655 -364 0
-363 -655 0
-363 364 0
364 506 -576 0
364 506 303 0
-364 -506 0
-364 576 -303 0
365 506 -735 0
365 506 303 0
-365 -506 0
-365 735 -303 0
366 562 41 0
366 -703 156 0
366 562 -703 0
366 41 156 0
-366 -562 -156 0
-366 703 -41 0
367 -368 -369 -370 -385 0
-367 385 0
-367 368 0
-367 370 0
-367 369 0
368 -647 -133 0
368 -588 -135 0
368 -588 -647 0
368 -133 -135 0
-368 647 135 0
-368 588 133 0
369 -562 119 0
369 -582 -157 0
369 -562 -582 0
369 119 -157 0
-369 582 -119 0
-369 562 157 0
370 -547 -371 -381 0
370 -159 -371 -381 0
-370 381 0
-370 371 0
-370 547 159 0
371 -372 373 374 -375 0
-371 375 0
-371 -374 0
-371 372 0
-371 -373 0
372 609 648 0
372 506 -609 -648 0
372 -506 648 0
372 506 717 0
-372 -506 -648 0
-372 609 -648 -717 0
-372 506 -609 648 -717 0
373 -506 -575 0
373 -575 -717 735 0
-373 575 0
-373 506 -735 0
-373 506 717 0
374 -506 -699 0
374 576 -699 -717 0
-374 699 0
-374 506 -576 0
-374 506 717 0
375 -617 -376 379 -380 0
375 617 -376 379 380 0
-375 -379 0
-375 617 -380 0
-375 376 0
-375 -617 380 0
376 -663 377 0
376 728 377 378 0
-376 -377 0
-376 663 -378 0
-376 663 -728 0
377 -506 -678 0
377 618 -678 -717 0
-377 678 0
-377 506 -618 0
-377 506 717 0
378 506 -522 0
-378 -506 0
-378 522 0
379 -506 -727 0
379 587 -717 -727 0
-379 727 0
-379 506 -587 0
-379 506 717 0
380 506 -516 0
-380 -506 0
-380 516 0
381 567 638 382 -383 0
381 -567 -638 -382 -383 0
-381 -638 382 0
-381 567 -382 0
-381 383 0
-381 -567 638 0
382 506 -520 0
-382 -506 0
-382 520 0
383 663 384 0
383 -728 -378 384 0
-383 -384 0
-383 -663 728 0
-383 -663 378 0
384 -506 -751 0
384 -717 729 -751 0
-384 751 0
-384 506 717 0
-384 506 -729 0
385 -386 -387 -388 -389 0
-385 389 0
-385 386 0
-385 388 0
-385 387 0
386 -646 -138 0
386 -738 -313 0
386 -646 -738 0
386 -138 -313 0
-386 738 138 0
-386 646 313 0
387 -709 -124 0
387 -566 -152 0
387 -566 -709 0
387 -124 -152 0
-387 709 152 0
-387 566 124 0
388 -616 39 0
388 599 -140 0
388 599 -616 0
388 39 -140 0
-388 616 140 0
-388 -599 -39 0
389 42 390 0
389 -622 703 0
389 703 390 0
389 -622 42 0
-389 -703 -42 0
-389 622 -390 0
390 -735 -308 0
-390 735 0
-390 308 0
391 -392 -398 -401 -411 0
-391 411 0
-391 392 0
-391 401 0
-391 398 0
392 -148 -393 397 0
392 627 -393 397 0
-392 393 0
-392 -397 0
-392 -627 148 0
393 -702 394 -396 0
393 702 394 396 0
-393 -394 0
-393 -702 396 0
-393 702 -396 0
394 -624 395 0
394 568 -617 624 -395 0
-394 -568 624 0
-394 -624 -395 0
-394 617 -395 0
-394 624 395 0
395 506 592 0
-395 -506 0
-395 -592 0
396 595 -310 0
-396 -595 0
-396 310 0
397 506 569 -587 -303 0
-397 -506 0
-397 303 0
-397 587 0
-397 -569 0
398 668 354 399 -400 0
398 -668 -354 399 -400 0
-398 -399 0
-398 668 -354 0
-398 400 0
-398 -668 354 0
399 -577 353 0
399 577 -625 663 -353 0
-399 -663 -353 0
-399 577 353 0
-399 -577 -353 0
-399 577 625 0
400 654 655 0
400 -364 -365 0
400 655 -365 0
400 654 -364 0
-400 -655 364 0
-400 -654 365 0
401 -402 -406 409 410 0
-401 406 0
-401 -410 0
-401 402 0
-401 -409 0
402 -305 -403 405 0
402 553 -403 405 0
-402 403 0
-402 -405 0
-402 -553 305 0
403 569 734 0
403 -306 -404 0
403 734 -404 0
403 569 -306 0
-403 -734 306 0
-403 -569 404 0
404 506 -587 0
404 506 303 0
-404 -506 0
-404 587 -303 0
405 -645 395 0
405 645 728 -749 -395 0
-405 645 -728 0
-405 -645 -395 0
-405 749 -395 0
-405 645 395 0
406 591 717 408 0
406 -591 -407 408 0
406 591 407 408 0
-406 -408 0
-406 -591 407 0
-406 591 -717 -407 0
407 506 -681 0
407 506 717 0
-407 -506 0
-407 681 -717 0
408 506 610 -681 -303 0
-408 -506 0
-408 303 0
-408 681 0
-408 -610 0
409 -506 -716 0
409 629 -716 -303 0
-409 716 0
-409 506 -629 0
-409 506 303 0
410 -506 -704 0
410 -704 729 -303 0
-410 704 0
-410 506 303 0
-410 506 -729 0
411 -412 -428 -432 -441 0
-411 441 0
-411 412 0
-411 432 0
-411 428 0
412 -413 -417 -422 -425 0
-412 425 0
-412 413 0
-412 422 0
-412 417 0
413 396 -414 -415 -416 0
-413 -396 0
-413 416 0
-413 415 0
-413 414 0
414 697 698 700 710 0
-414 -710 0
-414 -700 0
-414 -697 0
-414 -698 0
415 -687 688 691 692 0
-415 -692 0
-415 -691 0
-415 687 0
-415 -688 0
416 -726 732 740 747 0
-416 -747 0
-416 -740 0
-416 726 0
-416 -732 0
417 -418 -419 -420 -421 0
-417 421 0
-417 418 0
-417 420 0
-417 419 0
418 615 621 628 630 0
-418 -630 0
-418 -628 0
-418 -615 0
-418 -621 0
419 583 590 600 605 0
-419 -605 0
-419 -600 0
-419 -583 0
-419 -590 0
420 651 662 664 685 0
-420 -685 0
-420 -664 0
-420 -651 0
-420 -662 0
421 632 634 637 640 0
-421 -640 0
-421 -637 0
-421 -632 0
-421 -634 0
422 612 672 -423 424 0
422 -612 -672 -423 424 0
-422 -424 0
-422 -612 672 0
-422 423 0
-422 612 -672 0
423 -512 -706 378 0
423 512 706 378 0
423 512 -625 706 0
423 -512 -625 -706 0
-423 -512 706 0
-423 512 -706 0
-423 625 -378 0
424 643 -645 0
424 -643 645 0
-424 -643 -645 0
-424 643 645 0
425 672 754 426 -427 0
425 -672 -754 426 -427 0
-425 -426 0
-425 672 -754 0
-425 427 0
-425 -672 754 0
426 -656 380 0
-426 656 0
-426 -380 0
427 -592 625 -660 0
427 592 625 660 0
427 592 660 -378 0
427 -592 -660 -378 0
-427 -592 660 0
-427 592 -660 0
-427 -625 378 0
428 671 717 -430 0
428 -671 -429 -430 0
428 671 429 -430 0
-428 430 0
-428 -671 429 0
-428 671 -717 -429 0
429 506 -629 0
429 506 717 0
-429 -506 0
-429 629 -717 0
430 -652 -733 -431 0
430 652 733 431 0
-430 -733 431 0
-430 652 -431 0
-430 -652 733 0
431 506 -561 0
-431 -506 0
-431 561 0
432 -433 -435 -436 -437 0
-432 437 0
-432 433 0
-432 436 0
-432 435 0
433 506 560 -434 0
433 -506 -598 -434 0
-433 434 0
-433 506 -560 0
-433 -506 598 0
434 -550 -559 0
434 559 577 0
-434 550 -559 0
-434 559 -577 0
435 552 558 564 565 0
-435 -565 0
-435 -564 0
-435 -552 0
-435 -558 0
436 548 551 -701 0
436 548 551 689 0
-436 -548 0
-436 -551 0
-436 -689 701 0
437 577 680 -438 -440 0
437 -577 -680 -438 -440 0
-437 440 0
-437 -577 680 0
-437 438 0
-437 577 -680 0
438 -577 -439 0
438 550 -439 0
-438 439 0
-438 -550 577 0
439 -571 748 0
439 -607 749 0
439 -571 -607 0
439 748 749 0
-439 571 -749 0
-439 607 -748 0
440 549 -560 0
440 506 598 0
440 549 598 0
440 506 -560 0
-440 -506 -549 0
-440 560 -598 0
441 -442 -444 -447 -450 0
-441 450 0
-441 442 0
-441 447 0
-441 444 0
442 587 -443 0
442 -727 -443 0
442 310 -443 0
-442 443 0
-442 -587 727 -310 0
443 -513 514 573 -743 0
443 -513 -514 -573 -743 0
443 513 514 573 743 0
443 513 -514 -573 743 0
-443 513 -743 0
-443 -513 743 0
-443 -514 573 0
-443 514 -573 0
444 -382 -445 446 0
444 607 -445 446 0
-444 445 0
-444 -446 0
-444 -607 382 0
445 -656 378 0
445 -749 380 0
445 -656 -749 0
445 378 380 0
-445 656 -380 0
-445 749 -378 0
446 -571 378 0
-446 571 0
-446 -378 0
447 -448 449 0
447 610 449 0
-447 -449 0
-447 -610 448 0
448 506 -681 0
448 506 303 0
-448 -506 0
-448 681 -303 0
449 -596 395 0
449 567 596 -748 -395 0
-449 596 748 0
-449 -596 -395 0
-449 596 395 0
-449 -567 -395 0
450 -451 -452 -453 -456 0
-450 456 0
-450 451 0
-450 453 0
-450 452 0
451 -506 722 -752 0
451 506 -520 752 0
451 506 722 752 0
-451 506 -752 0
-451 520 -722 0
-451 -506 752 0
-451 -722 -752 0
452 506 595 753 0
452 -506 595 -753 0
452 506 -717 753 0
-452 -595 717 0
-452 506 -753 0
-452 -506 753 0
-452 -595 -753 0
453 649 718 -454 455 0
453 -649 -718 -454 -455 0
-453 718 -455 0
-453 -649 455 0
-453 454 0
-453 649 -718 0
454 -506 -653 0
454 506 653 -722 0
454 506 520 653 0
-454 -506 653 0
-454 506 -653 0
-454 506 -520 722 0
455 506 -746 0
-455 -506 0
-455 746 0
456 -457 -458 -459 -460 0
-456 460 0
-456 457 0
-456 459 0
-456 458 0
457 -506 665 672 -676 0
457 -506 -665 -672 -676 0
457 506 665 672 676 0
457 506 -665 -672 676 0
-457 506 -676 0
-457 -506 676 0
-457 -665 672 0
-457 665 -672 0
458 -515 596 613 -742 0
458 -515 -596 -613 -742 0
458 515 596 613 742 0
458 515 -596 -613 742 0
-458 515 -742 0
-458 -515 742 0
-458 -596 613 0
-458 596 -613 0
459 -516 -623 382 0
459 516 623 -748 0
459 516 623 382 0
459 -516 -623 -748 0
-459 516 -623 0
-459 -516 623 0
-459 748 -382 0
460 506 686 -720 -721 0
460 -506 -686 -720 -721 0
460 506 686 720 721 0
460 -506 -686 720 721 0
-460 506 -686 0
-460 -506 686 0
-460 720 -721 0
-460 -720 721 0
461 462 467 -468 0
461 -546 467 -468 0
-461 468 0
-461 -467 0
-461 546 -462 0
462 -93 463 0
-462 93 0
-462 -463 0
463 101 464 0
463 684 217 464 0
-463 -464 0
-463 -217 -101 0
-463 -684 -101 0
464 -465 -104 0
464 -80 -104 466 0
-464 104 0
-464 465 -466 0
-464 80 465 0
465 684 -217 0
-465 -684 0
-465 217 0
466 -579 -633 -730 0
-466 579 0
-466 633 0
-466 730 0
467 -581 -633 108 0
467 -633 108 174 0
-467 633 0
-467 -108 0
-467 581 -174 0
468 604 614 0
468 -111 -112 0
468 614 -112 0
468 604 -111 0
-468 -614 111 0
-468 -604 112 0
469 -111 -470 471 0
469 593 -470 471 0
-469 470 0
-469 -471 0
-469 -593 111 0
470 -708 264 0
470 -750 287 0
470 -708 -750 0
470 264 287 0
-470 708 -287 0
-470 750 -264 0
471 -546 108 462 0
-471 546 0
-471 -462 0
-471 -108 0
472 -597 -473 -474 0
472 597 473 -474 0
-472 474 0
-472 -597 473 0
-472 597 -473 0
473 143 -222 0
473 -122 -127 143 0
473 122 127 143 0
-473 -143 0
-473 -122 127 222 0
-473 122 -127 222 0
474 -639 690 475 0
474 -690 52 -475 0
474 -639 -690 -475 0
474 690 52 475 0
-474 690 -475 0
-474 -690 475 0
-474 639 -52 0
475 141 480 481 0
475 -141 -476 480 0
-475 -480 0
-475 141 -481 0
-475 -141 476 0
476 121 -477 0
-476 -121 0
-476 477 0
477 478 479 0
-477 -478 0
-477 -479 0
478 659 -315 0
478 659 316 0
-478 -659 0
-478 315 -316 0
479 -116 315 316 0
-479 116 0
-479 -316 0
-479 -315 0
480 115 477 0
-480 -115 0
-480 -477 0
481 -115 153 0
-481 115 0
-481 -153 0
482 -483 -491 496 -499 0
-482 499 0
-482 483 0
-482 491 0
-482 -496 0
483 235 484 -486 0
483 -629 484 -486 0
-483 486 0
-483 -484 0
-483 629 -235 0
484 714 -485 0
484 -714 108 485 0
-484 -108 485 0
-484 -714 -485 0
-484 714 485 0
485 -708 -93 0
-485 708 0
-485 93 0
486 -108 487 0
486 487 -488 0
486 609 487 0
-486 -487 0
-486 -609 108 488 0
487 681 -198 0
-487 -681 0
-487 198 0
488 -93 489 0
488 -681 -93 -95 0
-488 93 0
-488 681 -489 0
-488 95 -489 0
489 724 78 490 0
489 78 96 490 0
-489 -490 0
-489 -78 0
-489 -724 -96 0
490 -538 730 -99 0
490 -537 -730 -99 0
-490 99 0
-490 538 730 0
-490 537 -730 0
491 -609 -492 495 0
491 488 -492 495 0
-491 492 0
-491 -495 0
-491 609 -488 0
492 635 745 493 0
492 -635 745 -493 0
492 -635 202 -493 0
492 635 202 493 0
-492 635 -493 0
-492 -635 493 0
-492 -745 -202 0
493 115 -494 0
493 115 -477 0
493 115 -122 0
-493 -115 0
-493 122 477 494 0
494 -128 -137 0
494 -128 131 0
-494 128 0
-494 -131 137 0
495 -587 108 245 0
-495 587 0
-495 -245 0
-495 -108 0
496 108 -497 0
496 -568 108 380 0
496 568 108 -380 0
-496 -108 0
-496 -568 -380 497 0
-496 568 380 497 0
497 -506 -561 0
497 -561 -498 0
497 506 561 498 0
-497 -506 561 0
-497 561 -498 0
-497 506 -561 498 0
498 -684 -463 0
498 580 -463 0
-498 463 0
-498 -580 684 0
499 683 500 501 504 0
499 -683 -500 501 504 0
-499 -501 0
-499 -683 500 0
-499 -504 0
-499 683 -500 0
500 -128 -130 -259 0
500 128 130 -259 0
-500 259 0
-500 -128 130 0
-500 128 -130 0
501 108 -174 502 0
501 108 502 503 0
-501 -108 0
-501 -502 0
-501 174 -503 0
502 633 -174 0
502 581 -174 0
-502 174 0
-502 -581 -633 0
503 579 684 0
-503 -579 0
-503 -684 0
504 -675 108 174 0
504 675 -174 -184 0
504 -675 108 -184 0
-504 -675 -108 0
-504 675 174 0
-504 -174 184 0
964 0
2 3 0
-2 -3 0
2 0

